p tw 40 98
0 1
0 12
0 25
0 9
1 6
1 22
1 19
1 10
2 3
2 4
2 6
2 31
2 24
2 5
2 32
2 37
2 11
3 15
3 22
3 30
3 16
3 19
4 5
4 23
4 6
4 24
4 39
4 38
4 21
5 35
5 27
5 24
6 12
6 39
6 8
7 8
7 11
7 36
7 31
7 33
7 24
7 37
7 10
8 11
8 27
8 37
9 10
9 22
9 27
9 37
10 23
10 33
11 22
11 36
11 33
12 25
13 14
13 32
13 30
13 28
14 21
14 28
14 29
14 31
15 23
15 26
15 21
16 17
16 25
16 30
16 22
16 20
17 25
17 37
17 29
17 35
18 19
18 32
18 35
18 22
19 20
20 35
20 22
22 24
22 37
23 35
23 29
23 28
24 31
26 27
26 38
27 29
27 34
29 36
30 32
30 37
30 34
33 34
